
  23    0


   0  14 2 3 5 6 7 8 9 16 17 18 19 20 21 22 
   5   5 14 13 12 10 4 
  10   6 15 14 13 12 11 10 
   9   2 15 11 
   9   2 14 11 
   5   1 13 
   8   1 12 
   7   1 10 
   7   1 10 
   5   1 23
   5   1 23
  10   1 23
   3   1 23
   9   1 23
   8   1 23
   8   1 23
  10   1 23
   6   1 23
   7   1 23
   4   1 23
   9   1 23
   7   1 23
   0   0 
